c --- [ banner ] -------------------------------------------------------------
c 
c CaDiCaL Radically Simplified CDCL SAT Solver
c Copyright (c) 2016-2021 A. Biere, M. Fleury, N. Froleyks
c 
c Version 1.5.2 9c38a080b32c28d805e8e6ca21849856b0cda605
c g++ (Ubuntu 7.5.0-3ubuntu1~18.04) 7.5.0 -Wall -Wextra -O3 -DNDEBUG
c Wed Feb 16 23:15:36 EST 2022 Linux fac-vanhoeve01 5.4.0-99-generic x86_64
c 
c --- [ limit ] --------------------------------------------------------------
c 
c setting time limit to 600 seconds real time (due to '-t 600')
c setting conflict limit to 1000000000 conflicts (due to '1000000000')
c 
c --- [ parsing input ] ------------------------------------------------------
c 
c reading DIMACS file from 'ddfwcnfs/wap02a.col_40.cnf'
c opening file to read 'ddfwcnfs/wap02a.col_40.cnf'
c found 'p cnf 98560 4253384' header
c parsed 4253384 clauses in 2.35 seconds process time
c closing file 'ddfwcnfs/wap02a.col_40.cnf'
c after reading 68126656 bytes 65.0 MB
c 
c --- [ options ] ------------------------------------------------------------
c 
c all options are set to their default value
c 
c --- [ solving ] ------------------------------------------------------------
c 
c time measured in process time since initialization
c 
c  seconds   reductions  redundant   irredundant
c          MB    restarts       trail        variables
c           level   conflicts       glue          remaining
c 
c *  2.35 376  0 0   0    0    0  0% 0 4251784 96960 98%
c {  2.38 378  0 0   0    0    0  0% 0 4251784 96960 98%
c -  3.04 378 39 1   0  300  148  4% 36 4251784 96960 98%
c }  3.15 378 40 1   0 1000  634  4% 36 4251784 96960 98%
c [  3.15 378  0 1   0 1000  634  0% 0 4251784 96960 98%
c O  3.15 378 50 1   0 1002  636  4% 28 4251784 96960 98%
c -  4.96 476 48 2   0 1883 1096  4% 35 4251784 96960 98%
c ]  5.04 476 45 2   1 3003 1817  4% 37 4251784 96960 98%
c {  5.04 476 40 2   1 3003 1817  4% 36 4251784 96960 98%
c F  5.05 476 40 2   1 3004 1818  4% 36 4251784 96960 98%
c -  6.32 476 53 3   1 4248 1876  5% 31 4251784 96960 98%
c #  9.36 472 50 3   1 6007 3241  5% 30 4251784 96960 98%
c }  9.43 472 49 3   3 7005 3966  6% 30 4251784 96960 98%
c [  9.43 472 45 3   3 7005 3966  4% 37 4251784 96960 98%
c - 10.68 473 44 4   4 7404 2930  4% 36 4251784 96960 98%
c I 10.89 473 42 4   5 10008 4701  4% 36 4251784 96960 98%
c s 12.27 488 822 4   6 10911 5337  6% 38 4251784 96960 98%
c e 20.73 488 822 4   6 10911 2842  6% 38 3774349 90415 92%
c s 22.27 505 822 4   6 10911 2831  6% 38 3774349 90415 92%
c ^ 22.98 505 822 4   6 10911 2831  6% 38 3774349 90415 92%
c 
c  seconds     reductions   redundant    irredundant
c          MB      restarts        trail         variables
c            level     conflicts       glue           remaining
c 
c - 24.45 515 1377 5   7 11346 1638  7% 39 3774349 90415 92%
c ] 27.84 544 8568 5   8 15006 4380 22% 47 3774349 90415 92%
c { 27.84 544 49 5   8 15006 4380  6% 30 3774349 90415 92%
c B 27.86 544 50 5   8 15010 4384  6% 30 3774349 90415 92%
c - 29.07 545 67 6 260 15985 3910  6% 31 3774349 90415 92%
c W 30.72 545 75 6 1307 21011 7719  6% 34 3774349 90415 92%
c - 31.95 545 81 7 1349 21397 5222  6% 35 3774349 90415 92%
c - 33.56 545 71 8 1361 27582 6286  6% 35 3774349 90415 92%
c F 33.60 545 71 8 1361 28013 6600  6% 35 3774349 90415 92%
c } 36.86 545 65 8 1361 31007 8628  6% 34 3774349 90415 92%
c [ 36.86 545 8568 8 1361 31007 8628 22% 47 3774349 90415 92%
c s 37.21 545 7448 8 1361 32446 9523 20% 46 3774349 90415 92%
c w 39.81 545 7448 8 1361 32446 9513 20% 46 3774349 90415 92%
c s 44.08 545 7448 8 1361 32446 9267 20% 46 3774349 90415 92%
c ^ 44.72 545 7448 8 1361 32446 9267 20% 46 3774349 90415 92%
c - 46.09 546 6238 9 1363 34541 7738 18% 45 3774349 90415 92%
c B 46.20 546 5590 9 1364 36014 8583 16% 44 3774349 90415 92%
c - 48.51 547 8294 10 1368 42271 8203 26% 64 3774349 90415 92%
c W 50.14 547 7286 10 1368 45016 10161 25% 68 3774349 90415 92%
c - 54.88 547 5777 11 1369 50774 8599 21% 68 3774349 90415 92%
c 
c  seconds     reductions      redundant    irredundant
c          MB       restarts          trail         variables
c            level       conflicts        glue           remaining
c 
c O 55.52 547 6109 11 1370 55021 11951 23% 72 3774349 90415 92%
c - 57.00 547 5190 12 1374 60050 9029 20% 67 3774349 90415 92%
c ] 57.21 547 4755 12 1376 63008 10900 19% 65 3774349 90415 92%
c { 57.21 547 65 12 1376 63008 10900  6% 34 3774349 90415 92%
c s 57.51 547 67 12 1376 64748 12075  6% 33 3774349 90415 92%
c w 60.02 547 67 12 1376 64748 12074  6% 33 3774349 90415 92%
c s 64.32 547 67 12 1376 64748 12052  6% 33 3774349 90415 92%
c ^ 64.96 547 67 12 1376 64748 12052  6% 33 3774349 90415 92%
c B 65.07 547 65 12 1376 66022 12842  6% 33 3774349 90415 92%
c - 66.75 546 64 13 1511 70100 8212  6% 33 3774349 90415 92%
c W 72.21 546 61 13 1668 78028 12635  6% 34 3774349 90415 92%
c - 73.69 546 61 14 1722 80922 8438  6% 34 3774349 90415 92%
c # 74.79 546 60 14 2068 91030 15455  6% 34 3774349 90415 92%
c - 76.14 546 60 15 2078 92517 10314  6% 34 3774349 90415 92%
c - 78.42 546 54 16 2100 104885 10209  6% 34 3774349 90415 92%
c B 81.31 546 54 16 2100 105034 10300  6% 34 3774349 90415 92%
c s 82.04 546 58 16 2766 107819 11400  7% 35 3774349 90415 92%
c w 84.56 546 58 16 2766 107819 11391  7% 35 3774349 90415 92%
c s 88.92 546 58 16 2766 107819 11181  7% 35 3774349 90415 92%
c ^ 89.56 546 58 16 2766 107819 11181  7% 35 3774349 90415 92%
c 
c  seconds   reductions       redundant    irredundant
c          MB     restarts           trail         variables
c           level      conflicts         glue           remaining
c 
c - 92.01 547 78 17 5175 118027 12028  7% 39 3774349 90415 92%
c W 94.54 547 76 17 5175 120037 13291  7% 39 3774349 90415 92%
c } 95.10 547 72 17 5175 127010 18092  7% 39 3774349 90415 92%
c [ 95.10 547 4755 17 5175 127010 18092 19% 65 3774349 90415 92%
c - 96.74 546 4198 18 5177 131941 12565 18% 63 3774349 90415 92%
c B 97.10 546 3781 18 5180 136039 14885 17% 60 3774349 90415 92%
c - 103.24 550 6575 19 5183 146630 14674 25% 78 3774349 90415 92%
c W 106.81 550 6698 19 5184 153043 19939 28% 86 3774349 90415 92%
c s 107.98 550 6223 19 5184 161655 26231 29% 83 3774349 90415 92%
c w 110.62 550 6223 19 5184 161655 26230 29% 83 3774349 90415 92%
c s 115.09 550 6223 19 5184 161655 26227 29% 83 3774349 90415 92%
c ^ 115.75 550 6223 19 5184 161655 26227 29% 83 3774349 90415 92%
c - 117.04 551 6175 20 5184 162091 16108 29% 83 3774349 90415 92%
c I 118.08 551 5383 20 5187 171044 22935 26% 81 3774349 90415 92%
c - 120.24 550 5318 21 5191 178325 16941 26% 85 3774349 90415 92%
c B 125.72 550 5054 21 5198 190045 26651 26% 89 3774349 90415 92%
c - 127.66 552 4681 22 5199 195333 18830 25% 87 3774349 90415 92%
c W 132.07 552 3813 22 5206 210046 29362 22% 80 3774349 90415 92%
c - 133.53 548 3657 23 5206 213115 17814 22% 79 3774349 90415 92%
c s 138.38 548 3296 23 5214 226258 27074 20% 74 3774349 90415 92%
c 
c  seconds      reductions       redundant    irredundant
c           MB       restarts           trail         variables
c             level       conflicts         glue           remaining
c 
c w 140.97 548 3296 23 5214 226258 27074 20% 74 3774349 90415 92%
c s 145.62 548 3296 23 5214 226258 26753 20% 74 3774349 90415 92%
c O 147.08 548 3111 23 5214 231048 30117 20% 74 3774349 90415 92%
c - 148.45 549 3087 24 5214 231668 18800 20% 74 3774349 90415 92%
c - 151.61 549 2437 25 5216 250995 19084 18% 71 3774349 90415 92%
c B 151.87 549 2378 25 5216 253052 20603 17% 71 3774349 90415 92%
c ] 152.41 549 3019 25 5216 255012 22280 18% 75 3774349 90415 92%
c { 152.41 549 72 25 5216 255012 22280  7% 39 3774349 90415 92%
c - 154.89 549 65 26 5237 271097 19862  7% 38 3774349 90415 92%
c F 158.40 549 63 26 5237 276057 23245  7% 38 3774349 90415 92%
c - 160.95 548 62 27 5237 291972 22776  6% 36 3774349 90415 92%
c B 161.75 548 61 27 5237 300059 29704  6% 35 3774349 90415 92%
c - 164.20 549 61 28 5508 313618 24429  6% 36 3774349 90415 92%
c W 169.36 549 60 28 5852 325060 33527  6% 36 3774349 90415 92%
c - 175.22 549 60 29 6153 336036 23282  6% 36 3774349 90415 92%
c # 176.50 549 57 29 6280 351062 31588  6% 36 3774349 90415 92%
c - 178.42 548 55 30 6282 359227 20575  6% 36 3774349 90415 92%
c B 180.23 548 52 30 6365 378065 33000  6% 36 3774349 90415 92%
c - 181.97 548 52 31 6750 383192 20773  6% 36 3774349 90415 92%
c W 193.02 548 60 31 7204 406067 33996  6% 37 3774349 90415 92%
c 
c  seconds    reductions       redundant    irredundant
c           MB     restarts           trail         variables
c            level      conflicts         glue           remaining
c 
c - 194.40 548 61 32 7217 407929 19604  6% 37 3774349 90415 92%
c - 198.19 548 68 33 7475 433440 20166  6% 37 3774349 90415 92%
c F 198.37 548 68 33 7479 435068 21017  6% 37 3774349 90415 92%
c - 205.16 548 62 34 7590 459729 21158  7% 38 3774349 90415 92%
c B 205.69 548 61 34 7616 465071 24346  7% 38 3774349 90415 92%
c - 209.49 548 64 35 13121 486785 16254  7% 43 3774349 90415 92%
c W 216.45 548 64 35 15453 496072 19049  7% 44 3774349 90415 92%
c } 218.17 548 83 35 15472 511012 30474  7% 44 3774349 90415 92%
c [ 218.17 548 3019 35 15472 511012 30474 18% 75 3774349 90415 92%
c - 220.24 550 3196 36 15472 514618 21384 19% 77 3774349 90415 92%
c W 232.13 550 3631 36 15472 528077 31004 21% 80 3774349 90415 92%
c - 235.45 555 3075 37 15475 543221 27075 19% 80 3774349 90415 92%
c I 238.00 555 2536 37 15486 561078 40318 17% 79 3774349 90415 92%
c - 241.54 560 5994 38 15488 572596 29461 21% 99 3774349 90415 92%
c B 245.05 560 5683 38 15501 595087 46622 21% 99 3774349 90415 92%
c - 250.95 556 5751 39 15502 602745 30607 22% 97 3774349 90415 92%
c W 262.81 556 4389 39 15509 630088 53164 21% 93 3774349 90415 92%
c - 264.79 557 4498 40 15510 633667 33704 22% 93 3774349 90415 92%
c s 265.17 557 4498 40 15510 633667 33592 22% 93 3774349 90415 92%
c w 268.12 557 4498 40 15510 633667 33579 22% 93 3774349 90415 92%
c 
c  seconds      reductions        redundant    irredundant
c           MB        restarts           trail         variables
c             level        conflicts         glue           remaining
c 
c - 273.94 555 4247 41 15525 665363 36262 23% 86 3774349 90415 92%
c O 274.00 555 4216 41 15525 666089 36757 23% 86 3774349 90415 92%
c - 281.23 550 3055 42 15534 697831 32563 18% 72 3774349 90415 92%
c B 281.77 550 2898 42 15534 703093 36261 17% 70 3774349 90415 92%
c - 286.03 556 3373 43 15535 731072 31919 24% 69 3774349 90415 92%
c W 295.28 556 3806 43 15536 741095 39154 26% 70 3774349 90415 92%
c - 303.34 560 5753 44 15536 765087 35486 29% 85 3774349 90415 92%
c I 305.31 560 4981 44 15536 780096 46456 26% 90 3774349 90415 92%
c - 308.60 562 8127 45 15536 799874 33002 28% 113 3774349 90415 92%
c B 312.27 562 9211 45 15546 820099 48564 31% 119 3774349 90415 92%
c - 315.89 562 7949 46 15551 835437 36664 29% 115 3774349 90415 92%
c W 330.05 562 6362 46 15565 861100 54215 25% 100 3774349 90415 92%
c - 333.52 557 6008 47 15567 871770 36716 24% 106 3774349 90415 92%
c O 337.62 557 5625 47 15577 903102 60343 24% 98 3774349 90415 92%
c - 339.43 556 5313 48 15581 908877 36907 23% 95 3774349 90415 92%
c B 343.78 556 3686 48 15597 946105 64139 17% 77 3774349 90415 92%
c - 345.52 553 3900 49 15597 946756 37610 18% 81 3774349 90415 92%
c - 367.24 585 3836 50 15599 985410 44711 24% 119 3774349 90415 92%
c W 379.54 585 3686 50 15599 990107 48984 24% 120 3774349 90415 92%
c ] 385.20 585 3630 50 15612 1023014 74683 25% 110 3774349 90415 92%
c 
c  seconds    reductions         redundant    irredundant
c           MB      restarts            trail         variables
c            level        conflicts         glue           remaining
c 
c { 385.20 585 83 50 15612 1023014 74683  7% 44 3774349 90415 92%
c - 386.68 561 83 51 15615 1024836 42905  7% 44 3774349 90415 92%
c # 387.64 561 79 51 15642 1035108 49903  7% 44 3774349 90415 92%
c - 395.53 552 70 52 15668 1065034 39277  6% 43 3774349 90415 92%
c s 395.90 552 70 52 15668 1065034 38834  6% 43 3774349 90415 92%
c w 399.05 552 70 52 15668 1065034 38820  6% 43 3774349 90415 92%
c B 401.23 552 66 52 15724 1081110 49173  6% 42 3774349 90415 92%
c - 405.74 554 115 53 20372 1106005 42364  6% 44 3774349 90415 92%
c W 419.97 554 147 53 23837 1128112 59861  6% 46 3774349 90415 92%
c - 423.95 556 170 54 26505 1147749 45279  6% 47 3774349 90415 92%
c F 431.05 556 195 54 27788 1176114 68271  7% 47 3774349 90415 92%
c - 433.96 555 175 55 27792 1190266 46149  7% 46 3774349 90415 92%
c B 439.01 555 137 55 27792 1225120 75184  7% 44 3774349 90415 92%
c - 441.22 554 134 56 27850 1233557 47391  7% 44 3774349 90415 92%
c W 462.00 554 103 56 27853 1275121 76204  7% 43 3774349 90415 92%
c - 463.56 553 102 57 27853 1277622 42821  7% 43 3774349 90415 92%
c - 469.86 553 81 58 27860 1322459 44969  7% 42 3774349 90415 92%
c # 470.27 553 79 58 27910 1326124 47547  7% 42 3774349 90415 92%
c - 475.85 554 67 59 27913 1368069 49042  7% 41 3774349 90415 92%
c B 477.12 554 65 59 27918 1378125 57593  7% 41 3774349 90415 92%
c 
c  seconds    reductions         redundant    irredundant
c           MB      restarts            trail         variables
c            level        conflicts         glue           remaining
c 
c - 485.23 555 68 60 28625 1414453 48667  7% 41 3774349 90415 92%
c W 500.93 555 64 60 28675 1431126 59218  7% 40 3774349 90415 92%
c - 505.16 552 58 61 28727 1461610 42797  7% 40 3774349 90415 92%
c F 507.77 552 54 61 28817 1485128 57557  7% 40 3774349 90415 92%
c - 514.82 553 54 62 28824 1509539 46215  7% 39 3774349 90415 92%
c B 518.66 553 50 62 28834 1540130 67785  6% 38 3774349 90415 92%
c - 521.70 553 50 63 28994 1558243 45132  7% 38 3774349 90415 92%
c s 522.07 553 50 63 28994 1558243 43525  7% 38 3774349 90415 92%
c W 545.82 553 47 63 29169 1596131 67063  7% 38 3774349 90415 92%
c - 548.35 552 47 64 29200 1607719 43584  7% 38 3774349 90415 92%
c # 556.47 552 45 64 29364 1653132 72026  7% 39 3774349 90415 92%
c - 558.16 552 45 65 29366 1657968 42421  7% 39 3774349 90415 92%
c - 565.12 553 44 66 29491 1708990 45438  7% 39 3774349 90415 92%
c B 565.40 553 44 66 29500 1711134 46793  7% 39 3774349 90415 92%
c - 575.35 553 60 67 30117 1760785 43711  7% 39 3774349 90415 92%
c W 593.89 553 63 67 30121 1770136 49734  7% 39 3774349 90415 92%
c - 600.43 553 71 68 30235 1813353 46282  7% 39 3774349 90415 92%
c } 600.44 553 71 68 30235 1813355 46284  7% 39 3774349 90415 92%
c ? 600.44 553 71 68 30235 1813355 46284  7% 39 3774349 90415 92%
c 
c --- [ result ] -------------------------------------------------------------
c 
c UNKNOWN
c 
c --- [ run-time profiling ] -------------------------------------------------
c 
c process time taken by individual solving procedures
c (percentage relative to process time for solving)
c 
c       463.48   77.49% search
c       173.35   28.98% unstable
c       149.67   25.02% stable
c       140.43   23.48% walk
c       134.61   22.51% simplify
c        33.99    5.68% ternary
c        26.34    4.40% elim
c        18.70    3.13% vivify
c        15.06    2.52% probe
c         5.19    0.87% subsume
c         2.35    0.39% parse
c         0.03    0.00% lucky
c   =================================
c       598.09   99.61% solve
c 
c last line shows process time for solving
c (percentage relative to total process time)
c 
c --- [ statistics ] ---------------------------------------------------------
c 
c chronological:            300576        16.58 %  of conflicts
c conflicts:               1813355      3031.93    per second
c decisions:               4920173      8226.54    per second
c eliminated:                 6545         6.64 %  of all variables
c fixed:                      1600         1.62 %  of all variables
c learned:                 1795303        99.00 %  per conflict
c learned_lits:          238621452       100.00 %  learned literals
c minimized:                     0         0.00 %  learned literals
c shrunken:               99304024        41.62 %  learned literals
c minishrunken:            6552944         2.75 %  learned literals
c propagations:          563199565         0.94 M  per second
c reduced:                 1238592        68.30 %  per conflict
c rephased:                     59     30734.83    interval
c restarts:                  30235        59.98    interval
c stabilizing:                   5        37.61 %  of conflicts
c subsumed:                 507875         4.13 %  of all clauses
c strengthened:              16056         0.13 %  of all clauses
c vivified:                     76         0.00 %  of all clauses
c walked:                       19     95439.74    interval
c weakened:                 576952         3.04    average size
c 
c seconds are measured in process time for solving
c 
c --- [ resources ] ----------------------------------------------------------
c 
c total process time since initialization:       600.44    seconds
c total real time since initialization:          600.48    seconds
c maximum resident set size of process:          701.20    MB
c 
c --- [ shutting down ] ------------------------------------------------------
c 
c exit 0
